c nIsolatedPIs 0
c maxPI 32
p cnf 240 625
c gate 33 4 20 0
4 -33 0
20 -33 0
-4 -20 33 0
c gate 34 2 18 0
2 -34 0
18 -34 0
-2 -18 34 0
c gate 35 1 17 0
1 -35 0
17 -35 0
-1 -17 35 0
c gate 36 3 19 0
3 -36 0
19 -36 0
-3 -19 36 0
c gate 37 -35 -36 0
-35 -37 0
-36 -37 0
35 36 37 0
c gate 38 -34 37 0
-34 -38 0
37 -38 0
34 -37 38 0
c gate 39 4 -20 0
4 -39 0
-20 -39 0
-4 20 39 0
c gate 40 -4 20 0
-4 -40 0
20 -40 0
4 -20 40 0
c gate 41 -39 -40 0
-39 -41 0
-40 -41 0
39 40 41 0
c gate 42 -3 -19 0
-3 -42 0
-19 -42 0
3 19 42 0
c gate 43 -41 -42 0
-41 -43 0
-42 -43 0
41 42 43 0
c gate 44 -38 43 0
-38 -44 0
43 -44 0
38 -43 44 0
c gate 45 -33 -44 0
-33 -45 0
-44 -45 0
33 44 45 0
c gate 46 -5 21 0
-5 -46 0
21 -46 0
5 -21 46 0
c gate 47 5 -21 0
5 -47 0
-21 -47 0
-5 21 47 0
c gate 48 -46 -47 0
-46 -48 0
-47 -48 0
46 47 48 0
c gate 49 -45 -48 0
-45 -49 0
-48 -49 0
45 48 49 0
c gate 50 -2 18 0
-2 -50 0
18 -50 0
2 -18 50 0
c gate 51 35 -50 0
35 -51 0
-50 -51 0
-35 50 51 0
c gate 52 -2 51 0
-2 -52 0
51 -52 0
2 -51 52 0
c gate 53 -36 52 0
-36 -53 0
52 -53 0
36 -52 53 0
c gate 54 44 53 0
44 -54 0
53 -54 0
-44 -53 54 0
c gate 55 49 -54 0
49 -55 0
-54 -55 0
-49 54 55 0
c gate 56 -6 -22 0
-6 -56 0
-22 -56 0
6 22 56 0
c gate 57 6 22 0
6 -57 0
22 -57 0
-6 -22 57 0
c gate 58 -56 -57 0
-56 -58 0
-57 -58 0
56 57 58 0
c gate 59 5 21 0
5 -59 0
21 -59 0
-5 -21 59 0
c gate 60 58 -59 0
58 -60 0
-59 -60 0
-58 59 60 0
c gate 61 -55 60 0
-55 -61 0
60 -61 0
55 -60 61 0
c gate 62 -7 -23 0
-7 -62 0
-23 -62 0
7 23 62 0
c gate 63 7 23 0
7 -63 0
23 -63 0
-7 -23 63 0
c gate 64 -62 -63 0
-62 -64 0
-63 -64 0
62 63 64 0
c gate 65 -56 -61 0
-56 -65 0
-61 -65 0
56 61 65 0
c gate 66 64 -65 0
64 -66 0
-65 -66 0
-64 65 66 0
c gate 67 -61 -66 0
-61 -67 0
-66 -67 0
61 66 67 0
c gate 68 -11 -27 0
-11 -68 0
-27 -68 0
11 27 68 0
c gate 69 11 27 0
11 -69 0
27 -69 0
-11 -27 69 0
c gate 70 -68 -69 0
-68 -70 0
-69 -70 0
68 69 70 0
c gate 71 -10 26 0
-10 -71 0
26 -71 0
10 -26 71 0
c gate 72 -9 25 0
-9 -72 0
25 -72 0
9 -25 72 0
c gate 73 8 -24 0
8 -73 0
-24 -73 0
-8 24 73 0
c gate 74 9 -25 0
9 -74 0
-25 -74 0
-9 25 74 0
c gate 75 -73 -74 0
-73 -75 0
-74 -75 0
73 74 75 0
c gate 76 8 24 0
8 -76 0
24 -76 0
-8 -24 76 0
c gate 77 -8 -24 0
-8 -77 0
-24 -77 0
8 24 77 0
c gate 78 -76 -77 0
-76 -78 0
-77 -78 0
76 77 78 0
c gate 79 6 -22 0
6 -79 0
-22 -79 0
-6 22 79 0
c gate 80 -1 17 0
-1 -80 0
17 -80 0
1 -17 80 0
c gate 81 -50 -80 0
-50 -81 0
-80 -81 0
50 80 81 0
c gate 82 2 -18 0
2 -82 0
-18 -82 0
-2 18 82 0
c gate 83 3 -19 0
3 -83 0
-19 -83 0
-3 19 83 0
c gate 84 -82 -83 0
-82 -84 0
-83 -84 0
82 83 84 0
c gate 85 -81 84 0
-81 -85 0
84 -85 0
81 -84 85 0
c gate 86 -3 19 0
-3 -86 0
19 -86 0
3 -19 86 0
c gate 87 -40 -86 0
-40 -87 0
-86 -87 0
40 86 87 0
c gate 88 -85 87 0
-85 -88 0
87 -88 0
85 -87 88 0
c gate 89 -39 -47 0
-39 -89 0
-47 -89 0
39 47 89 0
c gate 90 -88 89 0
-88 -90 0
89 -90 0
88 -89 90 0
c gate 91 -46 -58 0
-46 -91 0
-58 -91 0
46 58 91 0
c gate 92 -90 91 0
-90 -92 0
91 -92 0
90 -91 92 0
c gate 93 -79 -92 0
-79 -93 0
-92 -93 0
79 92 93 0
c gate 94 -64 -93 0
-64 -94 0
-93 -94 0
64 93 94 0
c gate 95 7 -23 0
7 -95 0
-23 -95 0
-7 23 95 0
c gate 96 -78 95 0
-78 -96 0
95 -96 0
78 -95 96 0
c gate 97 -94 -96 0
-94 -97 0
-96 -97 0
94 96 97 0
c gate 98 -78 -97 0
-78 -98 0
-97 -98 0
78 97 98 0
c gate 99 75 -98 0
75 -99 0
-98 -99 0
-75 98 99 0
c gate 100 -72 -99 0
-72 -100 0
-99 -100 0
72 99 100 0
c gate 101 10 -26 0
10 -101 0
-26 -101 0
-10 26 101 0
c gate 102 -71 -101 0
-71 -102 0
-101 -102 0
71 101 102 0
c gate 103 -100 102 0
-100 -103 0
102 -103 0
100 -102 103 0
c gate 104 -71 -103 0
-71 -104 0
-103 -104 0
71 103 104 0
c gate 105 -70 -104 0
-70 -105 0
-104 -105 0
70 104 105 0
c gate 106 -13 -29 0
-13 -106 0
-29 -106 0
13 29 106 0
c gate 107 13 29 0
13 -107 0
29 -107 0
-13 -29 107 0
c gate 108 -106 -107 0
-106 -108 0
-107 -108 0
106 107 108 0
c gate 109 -14 -30 0
-14 -109 0
-30 -109 0
14 30 109 0
c gate 110 14 30 0
14 -110 0
30 -110 0
-14 -30 110 0
c gate 111 -109 -110 0
-109 -111 0
-110 -111 0
109 110 111 0
c gate 112 -108 -111 0
-108 -112 0
-111 -112 0
108 111 112 0
c gate 113 12 28 0
12 -113 0
28 -113 0
-12 -28 113 0
c gate 114 -12 -28 0
-12 -114 0
-28 -114 0
12 28 114 0
c gate 115 -113 -114 0
-113 -115 0
-114 -115 0
113 114 115 0
c gate 116 -15 -31 0
-15 -116 0
-31 -116 0
15 31 116 0
c gate 117 15 31 0
15 -117 0
31 -117 0
-15 -31 117 0
c gate 118 -116 -117 0
-116 -118 0
-117 -118 0
116 117 118 0
c gate 119 -16 -32 0
-16 -119 0
-32 -119 0
16 32 119 0
c gate 120 16 32 0
16 -120 0
32 -120 0
-16 -32 120 0
c gate 121 -119 -120 0
-119 -121 0
-120 -121 0
119 120 121 0
c gate 122 -118 -121 0
-118 -122 0
-121 -122 0
118 121 122 0
c gate 123 -115 122 0
-115 -123 0
122 -123 0
115 -122 123 0
c gate 124 112 123 0
112 -124 0
123 -124 0
-112 -123 124 0
c gate 125 105 124 0
105 -125 0
124 -125 0
-105 -124 125 0
c gate 126 -75 102 0
-75 -126 0
102 -126 0
75 -102 126 0
c gate 127 -101 -126 0
-101 -127 0
-126 -127 0
101 126 127 0
c gate 128 70 -127 0
70 -128 0
-127 -128 0
-70 127 128 0
c gate 129 70 104 0
70 -129 0
104 -129 0
-70 -104 129 0
c gate 130 -105 -129 0
-105 -130 0
-129 -130 0
105 129 130 0
c gate 131 -128 -130 0
-128 -131 0
-130 -131 0
128 130 131 0
c gate 132 75 -102 0
75 -132 0
-102 -132 0
-75 102 132 0
c gate 133 -126 -132 0
-126 -133 0
-132 -133 0
126 132 133 0
c gate 134 100 -102 0
100 -134 0
-102 -134 0
-100 102 134 0
c gate 135 -103 -134 0
-103 -135 0
-134 -135 0
103 134 135 0
c gate 136 -133 -135 0
-133 -136 0
-135 -136 0
133 135 136 0
c gate 137 133 135 0
133 -137 0
135 -137 0
-133 -135 137 0
c gate 138 64 92 0
64 -138 0
92 -138 0
-64 -92 138 0
c gate 139 -94 -138 0
-94 -139 0
-138 -139 0
94 138 139 0
c gate 140 -10 -26 0
-10 -140 0
-26 -140 0
10 26 140 0
c gate 141 10 26 0
10 -141 0
26 -141 0
-10 -26 141 0
c gate 142 9 25 0
9 -142 0
25 -142 0
-9 -25 142 0
c gate 143 -141 -142 0
-141 -143 0
-142 -143 0
141 142 143 0
c gate 144 66 78 0
66 -144 0
78 -144 0
-66 -78 144 0
c gate 145 62 -76 0
62 -145 0
-76 -145 0
-62 76 145 0
c gate 146 -9 -25 0
-9 -146 0
-25 -146 0
9 25 146 0
c gate 147 -77 -146 0
-77 -147 0
-146 -147 0
77 146 147 0
c gate 148 -145 147 0
-145 -148 0
147 -148 0
145 -147 148 0
c gate 149 -144 148 0
-144 -149 0
148 -149 0
144 -148 149 0
c gate 150 143 -149 0
143 -150 0
-149 -150 0
-143 149 150 0
c gate 151 -140 -150 0
-140 -151 0
-150 -151 0
140 150 151 0
c gate 152 -69 -151 0
-69 -152 0
-151 -152 0
69 151 152 0
c gate 153 -68 -152 0
-68 -153 0
-152 -153 0
68 152 153 0
c gate 154 -113 -153 0
-113 -154 0
-153 -154 0
113 153 154 0
c gate 155 -114 -154 0
-114 -155 0
-154 -155 0
114 154 155 0
c gate 156 -107 -155 0
-107 -156 0
-155 -156 0
107 155 156 0
c gate 157 -106 -156 0
-106 -157 0
-156 -157 0
106 156 157 0
c gate 158 111 -157 0
111 -158 0
-157 -158 0
-111 157 158 0
c gate 159 -109 -158 0
-109 -159 0
-158 -159 0
109 158 159 0
c gate 160 118 -159 0
118 -160 0
-159 -160 0
-118 159 160 0
c gate 161 -116 -160 0
-116 -161 0
-160 -161 0
116 160 161 0
c gate 162 121 -161 0
121 -162 0
-161 -162 0
-121 161 162 0
c gate 163 -121 161 0
-121 -163 0
161 -163 0
121 -161 163 0
c gate 164 -162 -163 0
-162 -164 0
-163 -164 0
162 163 164 0
c gate 165 -107 -113 0
-107 -165 0
-113 -165 0
107 113 165 0
c gate 166 111 -165 0
111 -166 0
-165 -166 0
-111 165 166 0
c gate 167 -110 -166 0
-110 -167 0
-166 -167 0
110 166 167 0
c gate 168 -117 167 0
-117 -168 0
167 -168 0
117 -167 168 0
c gate 169 -121 168 0
-121 -169 0
168 -169 0
121 -168 169 0
c gate 170 121 -168 0
121 -170 0
-168 -170 0
-121 168 170 0
c gate 171 -169 -170 0
-169 -171 0
-170 -171 0
169 170 171 0
c gate 172 164 171 0
164 -172 0
171 -172 0
-164 -171 172 0
c gate 173 -164 -171 0
-164 -173 0
-171 -173 0
164 171 173 0
c gate 174 -172 -173 0
-172 -174 0
-173 -174 0
172 173 174 0
c gate 175 121 -174 0
121 -175 0
-174 -175 0
-121 174 175 0
c gate 176 139 -175 0
139 -176 0
-175 -176 0
-139 175 176 0
c gate 177 34 35 0
34 -177 0
35 -177 0
-34 -35 177 0
c gate 178 67 177 0
67 -178 0
177 -178 0
-67 -177 178 0
c gate 179 -144 -178 0
-144 -179 0
-178 -179 0
144 178 179 0
c gate 180 -118 159 0
-118 -180 0
159 -180 0
118 -159 180 0
c gate 181 -160 -180 0
-160 -181 0
-180 -181 0
160 180 181 0
c gate 182 118 -167 0
118 -182 0
-167 -182 0
-118 167 182 0
c gate 183 -118 167 0
-118 -183 0
167 -183 0
118 -167 183 0
c gate 184 -182 -183 0
-182 -184 0
-183 -184 0
182 183 184 0
c gate 185 -181 -184 0
-181 -185 0
-184 -185 0
181 184 185 0
c gate 186 181 184 0
181 -186 0
184 -186 0
-181 -184 186 0
c gate 187 108 113 0
108 -187 0
113 -187 0
-108 -113 187 0
c gate 188 155 -187 0
155 -188 0
-187 -188 0
-155 187 188 0
c gate 189 -186 -188 0
-186 -189 0
-188 -189 0
186 188 189 0
c gate 190 -185 189 0
-185 -190 0
189 -190 0
185 -189 190 0
c gate 191 174 190 0
174 -191 0
190 -191 0
-174 -190 191 0
c gate 192 179 191 0
179 -192 0
191 -192 0
-179 -191 192 0
c gate 193 143 -148 0
143 -193 0
-148 -193 0
-143 148 193 0
c gate 194 -68 -140 0
-68 -194 0
-140 -194 0
68 140 194 0
c gate 195 115 194 0
115 -195 0
194 -195 0
-115 -194 195 0
c gate 196 -193 195 0
-193 -196 0
195 -196 0
193 -195 196 0
c gate 197 -153 196 0
-153 -197 0
196 -197 0
153 -196 197 0
c gate 198 144 -197 0
144 -198 0
-197 -198 0
-144 197 198 0
c gate 199 191 -198 0
191 -199 0
-198 -199 0
-191 198 199 0
c gate 200 -111 165 0
-111 -200 0
165 -200 0
111 -165 200 0
c gate 201 -166 -200 0
-166 -201 0
-200 -201 0
166 200 201 0
c gate 202 -111 157 0
-111 -202 0
157 -202 0
111 -157 202 0
c gate 203 -158 -202 0
-158 -203 0
-202 -203 0
158 202 203 0
c gate 204 201 203 0
201 -204 0
203 -204 0
-201 -203 204 0
c gate 205 -108 155 0
-108 -205 0
155 -205 0
108 -155 205 0
c gate 206 -204 205 0
-204 -206 0
205 -206 0
204 -205 206 0
c gate 207 -201 -203 0
-201 -207 0
-203 -207 0
201 203 207 0
c gate 208 -206 -207 0
-206 -208 0
-207 -208 0
206 207 208 0
c gate 209 -185 208 0
-185 -209 0
208 -209 0
185 -208 209 0
c gate 210 -186 -209 0
-186 -210 0
-209 -210 0
186 209 210 0
c gate 211 -172 210 0
-172 -211 0
210 -211 0
172 -210 211 0
c gate 212 -173 -211 0
-173 -212 0
-211 -212 0
173 211 212 0
c gate 213 -199 212 0
-199 -213 0
212 -213 0
199 -212 213 0
c gate 214 -192 -213 0
-192 -214 0
-213 -214 0
192 213 214 0
c gate 215 176 -214 0
176 -215 0
-214 -215 0
-176 214 215 0
c gate 216 139 -168 0
139 -216 0
-168 -216 0
-139 168 216 0
c gate 217 162 216 0
162 -217 0
216 -217 0
-162 -216 217 0
c gate 218 -138 -217 0
-138 -218 0
-217 -218 0
138 217 218 0
c gate 219 -176 218 0
-176 -219 0
218 -219 0
176 -218 219 0
c gate 220 -215 -219 0
-215 -220 0
-219 -220 0
215 219 220 0
c gate 221 -94 -220 0
-94 -221 0
-220 -221 0
94 220 221 0
c gate 222 -98 -221 0
-98 -222 0
-221 -222 0
98 221 222 0
c gate 223 -72 -74 0
-72 -223 0
-74 -223 0
72 74 223 0
c gate 224 98 -223 0
98 -224 0
-223 -224 0
-98 223 224 0
c gate 225 -222 -224 0
-222 -225 0
-224 -225 0
222 224 225 0
c gate 226 -137 -225 0
-137 -226 0
-225 -226 0
137 225 226 0
c gate 227 -136 -226 0
-136 -227 0
-226 -227 0
136 226 227 0
c gate 228 -131 227 0
-131 -228 0
227 -228 0
131 -227 228 0
c gate 229 -104 128 0
-104 -229 0
128 -229 0
104 -128 229 0
c gate 230 -105 -229 0
-105 -230 0
-229 -230 0
105 229 230 0
c gate 231 -228 230 0
-228 -231 0
230 -231 0
228 -230 231 0
c gate 232 -125 -231 0
-125 -232 0
-231 -232 0
125 231 232 0
c gate 233 -61 -177 0
-61 -233 0
-177 -233 0
61 177 233 0
c gate 234 232 -233 0
232 -234 0
-233 -234 0
-232 233 234 0
c gate 235 52 -61 0
52 -235 0
-61 -235 0
-52 61 235 0
c gate 236 -232 235 0
-232 -236 0
235 -236 0
232 -235 236 0
c gate 237 -234 -236 0
-234 -237 0
-236 -237 0
234 236 237 0
c gate 238 67 -237 0
67 -238 0
-237 -238 0
-67 237 238 0
c gate 239 -67 237 0
-67 -239 0
237 -239 0
67 -237 239 0
c gate 240 -238 -239 0
-238 -240 0
-239 -240 0
238 239 240 0
c PO
-240 0
